/* Objective function */
max: 385 x11 + 385 x12 + 385 x13 + 330 x21 + 330 x22 + 330 x23 + 275 x31 + 275 x32 + 275 x33; 

/* Variable definition
Xij = Assign student i to group j */

/* Constraints */
x11 + x12 + x13 = 1;
x21 + x22 + x23 = 1;
x31 + x32 + x33 = 1;
x41 + x42 + x43 = 1;
x51 + x52 + x53 = 1;
x61 + x62 + x63 = 1;
x71 + x72 + x73 = 1;
x81 + x82 + x83 = 1;
x91 + x92 + x93 = 1;
x101 + x102 + x103 = 1;
x111 + x112 + x113 = 1;

